(set-logic ALL)
(declare-fun seed0_T_1 () Int)
(declare-fun seed0_T_2 () Bool)
(declare-fun seed0_var_0xINPUT_482816 () String)
(assert (and (or (>= seed0_T_1 (str.len seed0_var_0xINPUT_482816)) (=> (<= (mod seed0_T_1 seed0_T_1) (+ seed0_T_1 (- 438))) (>= (div seed0_T_1 seed0_T_1) (- seed0_T_1 159)))) (or (= seed0_T_2 (= seed0_T_1 0)) (not (< (mod seed0_T_1 seed0_T_1) (- seed0_T_1 157)))) (or seed0_T_2 (not (str.contains (str.++ seed0_var_0xINPUT_482816 "s") (str.++ seed0_var_0xINPUT_482816 "4rvePtgbZoFLSnJ"))))))
(check-sat)
(exit)